NAME: PointSet_Angle_25_6
TYPE: TSP
COMMENT: Points chosen discrete uniformly at random out of ${0, \ldots, 500}^2$.
DIMENSION: 25
EDGE_WEIGHT_TYPE: EUC_2D
NODE_COORD_SECTION
1 478 440
2 452 252
3 262 281
4 82 386
5 432 197
6 189 164
7 148 49
8 472 214
9 348 147
10 176 178
11 324 482
12 474 207
13 159 204
14 117 277
15 177 208
16 465 401
17 148 416
18 399 156
19 443 228
20 288 375
21 425 223
22 285 72
23 273 256
24 287 120
25 150 209
EOF
